-19978.0 -20094.0 
-19003.0 -20339.0 
-19500.0 -20288.0 
-19741.0 -20260.0 
-19305.0 -20314.0 
-19279.0 -20337.0 
-19928.0 -20162.0 
-19953.0 -20134.0 
-19953.0 -20134.0 
-19830.0 -20238.0 
-19871.0 -20182.0 
-19864.0 -20210.0 
-19839.0 -20228.0 
-19830.0 -20238.0 
-19886.0 -20169.0 
-19871.0 -20182.0 
-19849.0 -20218.0 
-19886.0 -20169.0 
-19849.0 -20218.0 
-19856.0 -20211.0 
-19864.0 -20210.0 
-19856.0 -20211.0 
-19953.0 -20134.0 
-19886.0 -20169.0 
-19886.0 -20169.0 
-19886.0 -20169.0 
-19886.0 -20169.0 
-19886.0 -20169.0 
-19886.0 -20169.0 
-19886.0 -20169.0 
-19886.0 -20169.0 
-19886.0 -20169.0 
-19886.0 -20169.0 
-19886.0 -20169.0 
-19886.0 -20169.0 
-19886.0 -20169.0 
-19886.0 -20169.0 
-19886.0 -20169.0 
-19886.0 -20169.0 
-19886.0 -20169.0 
-19886.0 -20169.0 
-19886.0 -20169.0 
-19886.0 -20169.0 
-19886.0 -20169.0 
-19886.0 -20169.0 
-19886.0 -20169.0 
-19886.0 -20169.0 
-19886.0 -20169.0 
-19886.0 -20169.0 
-19886.0 -20169.0 
-19886.0 -20169.0 
-19886.0 -20169.0 
-19886.0 -20169.0 
-19886.0 -20169.0 
-19886.0 -20169.0 
-19886.0 -20169.0 
-19886.0 -20169.0 
-19886.0 -20169.0 
-19886.0 -20169.0 
-19886.0 -20169.0 
-19886.0 -20169.0 
-19886.0 -20169.0 
-19886.0 -20169.0 
-19886.0 -20169.0 
-19886.0 -20169.0 
-19886.0 -20169.0 
-19886.0 -20169.0 
-19886.0 -20169.0 
-19886.0 -20169.0 
-19886.0 -20169.0 
-19886.0 -20169.0 
-19886.0 -20169.0 
-19886.0 -20169.0 
-19886.0 -20169.0 
-19886.0 -20169.0 
-19886.0 -20169.0 
-19886.0 -20169.0 
-19886.0 -20169.0 
-19886.0 -20169.0 
-19886.0 -20169.0 
-19886.0 -20169.0 
-19886.0 -20169.0 
-19886.0 -20169.0 
-19886.0 -20169.0 
-19886.0 -20169.0 
-19886.0 -20169.0 
-19886.0 -20169.0 
-19886.0 -20169.0 
-19886.0 -20169.0 
-19886.0 -20169.0 
-19886.0 -20169.0 
-19886.0 -20169.0 
-19886.0 -20169.0 
-19886.0 -20169.0 
-19886.0 -20169.0 
-19886.0 -20169.0 
-19886.0 -20169.0 
-19886.0 -20169.0 
-19886.0 -20169.0 
-19886.0 -20169.0 
